p cnf 33 84
a 18 23 0
e 1 2 3 4 5 6 7 8 9 10 11 12 13 14 15 16 17 19 20 21 22 24 25 26 27 28 29 30 31 32 33 0
3 -1 0
3 2 0
1 -2 -3 0
4 5 -6 0
-4 -5 -6 0
4 -5 6 0
-4 5 6 0
-7 1 0
-7 6 0
-1 -6 7 0
11 9 0
11 10 0
-9 -10 -11 0
-12 11 0
-12 1 0
-11 -1 12 0
-8 12 -13 0
8 -12 -13 0
-8 -12 13 0
8 12 13 0
-14 -10 0
-14 -4 0
10 4 14 0
-15 1 0
-15 6 0
-1 -6 15 0
-16 -14 0
-16 15 0
14 -15 16 0
17 13 0
17 16 0
-13 -16 -17 0
18 -7 0
18 17 0
7 -17 -18 0
-19 3 0
-19 18 0
-3 -18 19 0
21 5 0
21 -20 0
-5 20 -21 0
-23 -21 0
-23 22 0
21 -22 23 0
-6 2 -24 0
6 -2 -24 0
-6 -2 24 0
6 2 24 0
-25 23 0
-25 -24 0
-23 24 25 0
-4 -11 -26 0
4 11 -26 0
-4 11 26 0
4 -11 26 0
-27 -25 0
-27 -26 0
25 26 27 0
29 -28 0
29 -9 0
28 9 -29 0
30 4 0
30 -1 0
-4 1 -30 0
-29 -30 -31 0
29 30 -31 0
-29 30 31 0
29 -30 31 0
-32 -27 0
-32 -31 0
27 31 32 0
-19 32 -33 0
19 -32 -33 0
-19 -32 33 0
19 32 33 0
25 12 24 -1 -2 0
31 12 -26 4 0
16 13 29 0
15 -28 -11 0
-16 -27 22 0
29 20 -14 -6 0
21 2 9 -24 19 -29 0
21 -30 27 -28 -5 -20 -25 7 0
33 0
